21463.8
63 21 20 4 2 76 68 67 69 70 92 96 97 13 14 38 39 48 47 43 44 49 51 50 46 42 41 45 40 28 25 26 27 34 35 36 33 22 23 30 31 37 54 32 29 24 19 18 17 15 16 53 12 3 7 8 5 99 104 0 6 10 11 9 1 102 101 98 103 100 52 95 94 91 87 82 83 88 84 81 77 71 78 80 85 93 90 89 86 79 75 74 73 72 55 56 60 61 65 66 64 59 58 57 62 
